decision_x1=[0,7];
decision_x2=[0,7];
decision_x3=[0,7];
decision_x4=[0,7];
decision_x5=[0,7];
decision_x6=[0,7];
decision_x7=[0,7];
decision_x8=[0,7];
decision_x9=[0,7];
decision_x10=[0,7];
decision_x11=[0,7];
decision_x12=[0,7];
decision_x13=[0,7];
decision_x14=[0,7];
decision_x15=[0,7];
decision_x16=[0,7];
decision_x17=[0,7];
decision_x18=[0,7];
random_y1=[0,7];
random_y2=[0,7];
random_y3=[0,7];
random_y4=[0,7];
random_y5=[0,7];
random_y6=[0,7];
random_y7=[0,7];
random_y8=[0,7];
constraint_x2_x1=[
0,0,7.1|
0,1,6|
0,2,6.8|
0,3,5.8|
0,4,8.4|
0,5,9|
0,6,8.2|
0,7,0.25|
1,0,1.5|
1,1,2.4|
1,2,1.3|
1,3,2.5|
1,4,3.8|
1,5,1.9|
1,6,9|
1,7,3.1|
2,0,2.8|
2,1,1.5|
2,2,7|
2,3,3.1|
2,4,3.5|
2,5,3.3|
2,6,9.4|
2,7,5.8|
3,0,7.4|
3,1,9.5|
3,2,6.7|
3,3,5.4|
3,4,3.2|
3,5,2.4|
3,6,1.9|
3,7,2.5|
4,0,7.4|
4,1,8|
4,2,1.9|
4,3,6.4|
4,4,0.78|
4,5,3.6|
4,6,9.5|
4,7,7.1|
5,0,5.3|
5,1,9.4|
5,2,2.4|
5,3,4.8|
5,4,1.4|
5,5,4.7|
5,6,9.4|
5,7,0.0039|
6,0,6.3|
6,1,4.2|
6,2,3.4|
6,3,3.7|
6,4,6|
6,5,0.81|
6,6,5.9|
6,7,7.6|
7,0,9.5|
7,1,8.6|
7,2,9.6|
7,3,4.3|
7,4,4.9|
7,5,8.2|
7,6,3|
7,7,5.6|
];
constraint_x3_x2=[
0,0,8.4|
0,1,4.5|
0,2,0.055|
0,3,6.3|
0,4,9.2|
0,5,7.5|
0,6,3.4|
0,7,8.9|
1,0,5.6|
1,1,5.9|
1,2,7|
1,3,2.7|
1,4,5.7|
1,5,2.2|
1,6,3.3|
1,7,3.7|
2,0,5.9|
2,1,8|
2,2,3.8|
2,3,1.2|
2,4,6.3|
2,5,3|
2,6,2.8|
2,7,3.5|
3,0,5.7|
3,1,9.7|
3,2,6.1|
3,3,2.2|
3,4,3.2|
3,5,4.9|
3,6,1.9|
3,7,4.6|
4,0,2.7|
4,1,9.4|
4,2,5.6|
4,3,3.9|
4,4,9.8|
4,5,5.7|
4,6,9.9|
4,7,3.9|
5,0,1|
5,1,9.6|
5,2,0.24|
5,3,0.022|
5,4,2.4|
5,5,4.4|
5,6,8.4|
5,7,3.5|
6,0,9.4|
6,1,7.7|
6,2,5|
6,3,3.9|
6,4,7.2|
6,5,2.4|
6,6,5.7|
6,7,5.9|
7,0,5.6|
7,1,9.9|
7,2,8.8|
7,3,1.4|
7,4,5.5|
7,5,8|
7,6,3.7|
7,7,3.8|
];
constraint_x4_x3=[
0,0,0.96|
0,1,0.091|
0,2,0.92|
0,3,5.7|
0,4,4.6|
0,5,4|
0,6,0.35|
0,7,2.4|
1,0,8.9|
1,1,3|
1,2,6.8|
1,3,7.1|
1,4,9.3|
1,5,5.7|
1,6,5.2|
1,7,0.86|
2,0,0.46|
2,1,1.2|
2,2,6.6|
2,3,0.92|
2,4,1.3|
2,5,9.7|
2,6,7.6|
2,7,2.6|
3,0,4.4|
3,1,6.5|
3,2,6.2|
3,3,0.88|
3,4,2.8|
3,5,2.4|
3,6,2.8|
3,7,3.6|
4,0,1.4|
4,1,9.9|
4,2,4|
4,3,7.7|
4,4,2.2|
4,5,4.7|
4,6,1.2|
4,7,9.8|
5,0,4.6|
5,1,1.5|
5,2,6.9|
5,3,3.6|
5,4,0.54|
5,5,1.8|
5,6,1.3|
5,7,4.6|
6,0,5|
6,1,1.7|
6,2,6.1|
6,3,0.64|
6,4,9.7|
6,5,4.3|
6,6,4.1|
6,7,4.4|
7,0,4.3|
7,1,6.7|
7,2,8.3|
7,3,8.8|
7,4,2.5|
7,5,4.4|
7,6,9.2|
7,7,9.9|
];
constraint_x5_x1=[
0,0,7.1|
0,1,2.4|
0,2,9.7|
0,3,5.9|
0,4,5.3|
0,5,0.9|
0,6,9.3|
0,7,9.9|
1,0,5.3|
1,1,1.5|
1,2,3.8|
1,3,6.3|
1,4,4.9|
1,5,5.3|
1,6,4.5|
1,7,1.5|
2,0,2.4|
2,1,8.3|
2,2,0.12|
2,3,8.3|
2,4,2.3|
2,5,8.8|
2,6,1.1|
2,7,9.8|
3,0,5.2|
3,1,0.054|
3,2,3.5|
3,3,9.7|
3,4,6.9|
3,5,8|
3,6,7.9|
3,7,4.1|
4,0,6.7|
4,1,7.6|
4,2,2.1|
4,3,1.4|
4,4,6.6|
4,5,0.65|
4,6,8.5|
4,7,5.9|
5,0,6.7|
5,1,7.8|
5,2,8.3|
5,3,6.1|
5,4,5.3|
5,5,1.7|
5,6,8.1|
5,7,6.1|
6,0,6.1|
6,1,3.4|
6,2,9.9|
6,3,6|
6,4,2.2|
6,5,9.9|
6,6,1.6|
6,7,5|
7,0,7.9|
7,1,8.2|
7,2,9.1|
7,3,5|
7,4,2.6|
7,5,5.7|
7,6,5.2|
7,7,9.2|
];
constraint_x6_x2=[
0,0,9.4|
0,1,5.5|
0,2,5.9|
0,3,3.1|
0,4,3.3|
0,5,3.8|
0,6,6.1|
0,7,7.9|
1,0,4.6|
1,1,3.3|
1,2,3.6|
1,3,5.6|
1,4,4.4|
1,5,8.6|
1,6,4.2|
1,7,7.3|
2,0,4.8|
2,1,6.1|
2,2,6.6|
2,3,1.6|
2,4,4|
2,5,5.5|
2,6,1.5|
2,7,3.5|
3,0,8.7|
3,1,6.2|
3,2,5|
3,3,2.7|
3,4,0.27|
3,5,1.8|
3,6,5.2|
3,7,2.4|
4,0,0.67|
4,1,6.3|
4,2,2.9|
4,3,7|
4,4,5.9|
4,5,7.1|
4,6,9.9|
4,7,0.94|
5,0,0.5|
5,1,7|
5,2,0.12|
5,3,3.9|
5,4,5|
5,5,3.2|
5,6,9.5|
5,7,4.5|
6,0,3.4|
6,1,0.33|
6,2,4.7|
6,3,7.3|
6,4,2.1|
6,5,2.2|
6,6,1.9|
6,7,1.9|
7,0,8|
7,1,7.2|
7,2,5.4|
7,3,7.4|
7,4,7.9|
7,5,4.8|
7,6,5.4|
7,7,7.5|
];
constraint_x6_x5=[
0,0,9.4|
0,1,4.3|
0,2,4|
0,3,7.6|
0,4,6.3|
0,5,2.8|
0,6,6.3|
0,7,9.5|
1,0,9.8|
1,1,0.24|
1,2,8|
1,3,0.72|
1,4,0.92|
1,5,4.2|
1,6,4.1|
1,7,4.6|
2,0,4.6|
2,1,1.3|
2,2,9.7|
2,3,4.9|
2,4,6.4|
2,5,9.4|
2,6,9.1|
2,7,2.8|
3,0,10|
3,1,8.3|
3,2,9|
3,3,2.1|
3,4,5.7|
3,5,9.4|
3,6,6.2|
3,7,0.89|
4,0,9.6|
4,1,6.3|
4,2,3.6|
4,3,2.6|
4,4,8.2|
4,5,5.5|
4,6,3.2|
4,7,3.9|
5,0,1.7|
5,1,3|
5,2,4.6|
5,3,4.6|
5,4,3.6|
5,5,1.7|
5,6,4.1|
5,7,5.2|
6,0,3|
6,1,6.7|
6,2,3.8|
6,3,2.8|
6,4,2.7|
6,5,4.3|
6,6,1.5|
6,7,2.3|
7,0,8.6|
7,1,7|
7,2,2.1|
7,3,0.26|
7,4,9|
7,5,3.5|
7,6,9.7|
7,7,4.6|
];
constraint_x7_x3=[
0,0,4.3|
0,1,3.6|
0,2,4.1|
0,3,3.2|
0,4,0.24|
0,5,7.3|
0,6,4.9|
0,7,1.9|
1,0,9.5|
1,1,7.5|
1,2,8|
1,3,6.8|
1,4,6.2|
1,5,5.4|
1,6,5.7|
1,7,0.63|
2,0,2.3|
2,1,8.4|
2,2,7.2|
2,3,1.5|
2,4,9.4|
2,5,7.4|
2,6,5.6|
2,7,6.9|
3,0,9.6|
3,1,4.3|
3,2,6.5|
3,3,6.5|
3,4,4.3|
3,5,0.35|
3,6,8.4|
3,7,0.19|
4,0,7.6|
4,1,0.57|
4,2,8.3|
4,3,9.2|
4,4,3.3|
4,5,4.2|
4,6,5.6|
4,7,1.1|
5,0,2.3|
5,1,9|
5,2,3.9|
5,3,2|
5,4,4.4|
5,5,1.3|
5,6,0.62|
5,7,5.1|
6,0,6.7|
6,1,6.5|
6,2,0.19|
6,3,1.5|
6,4,3.2|
6,5,8.2|
6,6,9.7|
6,7,3.5|
7,0,2.6|
7,1,7.6|
7,2,4.8|
7,3,4.3|
7,4,1.4|
7,5,7.2|
7,6,6|
7,7,7.7|
];
constraint_x7_x6=[
0,0,8.2|
0,1,4.6|
0,2,9.5|
0,3,3.2|
0,4,4.7|
0,5,7.3|
0,6,7.4|
0,7,1.3|
1,0,3.6|
1,1,4.4|
1,2,9.6|
1,3,1.6|
1,4,5.6|
1,5,0.26|
1,6,9.6|
1,7,9.5|
2,0,3.6|
2,1,3.9|
2,2,9.6|
2,3,2.3|
2,4,3.1|
2,5,6.9|
2,6,3.5|
2,7,3.4|
3,0,6.3|
3,1,2.7|
3,2,9.1|
3,3,0.25|
3,4,9.1|
3,5,4.4|
3,6,0.83|
3,7,0.61|
4,0,0.41|
4,1,9.2|
4,2,1.5|
4,3,2.1|
4,4,8.7|
4,5,0.17|
4,6,3.4|
4,7,6.3|
5,0,2.3|
5,1,9.8|
5,2,8.3|
5,3,0.019|
5,4,2.6|
5,5,1.6|
5,6,0.68|
5,7,1.6|
6,0,8|
6,1,0.29|
6,2,7.2|
6,3,5.5|
6,4,1.6|
6,5,5.1|
6,6,1.9|
6,7,2.8|
7,0,4.5|
7,1,0.38|
7,2,5.9|
7,3,10|
7,4,6.6|
7,5,5.8|
7,6,1.3|
7,7,0.57|
];
constraint_x8_x4=[
0,0,6.8|
0,1,8.6|
0,2,6.1|
0,3,1.2|
0,4,6.5|
0,5,6.5|
0,6,1.7|
0,7,7.1|
1,0,1.1|
1,1,0.77|
1,2,1.7|
1,3,2.3|
1,4,8.4|
1,5,4.3|
1,6,4.1|
1,7,9.9|
2,0,2|
2,1,3.7|
2,2,9.6|
2,3,6.7|
2,4,6.8|
2,5,0.69|
2,6,6.5|
2,7,5.8|
3,0,9.5|
3,1,7.9|
3,2,5.8|
3,3,4.3|
3,4,0.045|
3,5,1.1|
3,6,4.8|
3,7,6.3|
4,0,1.3|
4,1,0.79|
4,2,8.3|
4,3,9.3|
4,4,3.8|
4,5,1.4|
4,6,1.6|
4,7,9.2|
5,0,3.3|
5,1,6.2|
5,2,4.3|
5,3,0.029|
5,4,6.8|
5,5,10|
5,6,2.3|
5,7,6.1|
6,0,7.4|
6,1,7|
6,2,5.8|
6,3,3.5|
6,4,6|
6,5,3.3|
6,6,8.1|
6,7,1.3|
7,0,0.52|
7,1,7.5|
7,2,4.7|
7,3,7.4|
7,4,4.6|
7,5,4.8|
7,6,2.9|
7,7,9.8|
];
constraint_x8_x7=[
0,0,6.8|
0,1,8.1|
0,2,8.8|
0,3,9.9|
0,4,7.6|
0,5,4.4|
0,6,0.56|
0,7,9.2|
1,0,4.6|
1,1,4.5|
1,2,9.8|
1,3,3.5|
1,4,8.6|
1,5,5.4|
1,6,2.7|
1,7,8.9|
2,0,5.1|
2,1,8.2|
2,2,5.4|
2,3,7|
2,4,6|
2,5,0.064|
2,6,2.7|
2,7,2.8|
3,0,9.1|
3,1,0.35|
3,2,5|
3,3,8.7|
3,4,3|
3,5,6|
3,6,1.9|
3,7,9.5|
4,0,3.3|
4,1,4.1|
4,2,6.7|
4,3,5.6|
4,4,1.6|
4,5,5.8|
4,6,5.2|
4,7,4.9|
5,0,4.6|
5,1,7.1|
5,2,1.4|
5,3,5.5|
5,4,4.3|
5,5,3.5|
5,6,4.4|
5,7,8|
6,0,2.3|
6,1,4.1|
6,2,2.3|
6,3,6.6|
6,4,1.6|
6,5,2.5|
6,6,2.2|
6,7,0.77|
7,0,3|
7,1,10|
7,2,1.8|
7,3,5|
7,4,3.2|
7,5,8|
7,6,1.9|
7,7,9.9|
];
constraint_x9_x5=[
0,0,9.9|
0,1,6.2|
0,2,3|
0,3,6.9|
0,4,0.97|
0,5,8.4|
0,6,7.8|
0,7,3|
1,0,1.5|
1,1,3.3|
1,2,2.4|
1,3,8.6|
1,4,9.6|
1,5,1.2|
1,6,2.2|
1,7,5.2|
2,0,7.9|
2,1,2.5|
2,2,2.7|
2,3,3.9|
2,4,7.9|
2,5,6.9|
2,6,8.9|
2,7,0.16|
3,0,9.1|
3,1,3.4|
3,2,5.3|
3,3,0.31|
3,4,1.3|
3,5,8.8|
3,6,2|
3,7,1.7|
4,0,3.5|
4,1,5.5|
4,2,8.7|
4,3,3.2|
4,4,0.2|
4,5,0.3|
4,6,2.4|
4,7,0.51|
5,0,0.051|
5,1,9.2|
5,2,9.4|
5,3,5.3|
5,4,5.5|
5,5,6|
5,6,5.7|
5,7,1.6|
6,0,5.6|
6,1,6.4|
6,2,0.4|
6,3,2.7|
6,4,4|
6,5,5.7|
6,6,5.2|
6,7,9.8|
7,0,0.81|
7,1,1.7|
7,2,7.5|
7,3,3.1|
7,4,2|
7,5,1.1|
7,6,0.98|
7,7,2.6|
];
constraint_x10_x6=[
0,0,4.3|
0,1,2.4|
0,2,7.3|
0,3,4.1|
0,4,1.4|
0,5,5.2|
0,6,8.7|
0,7,6.6|
1,0,0.73|
1,1,0.25|
1,2,0.98|
1,3,8.6|
1,4,3.9|
1,5,1.2|
1,6,4.8|
1,7,9.1|
2,0,0.55|
2,1,4.8|
2,2,5.7|
2,3,0.32|
2,4,1.9|
2,5,1.9|
2,6,7.4|
2,7,4.3|
3,0,0.93|
3,1,6.6|
3,2,0.62|
3,3,4.9|
3,4,1.5|
3,5,6.6|
3,6,5.1|
3,7,7.5|
4,0,9.5|
4,1,6.5|
4,2,5.6|
4,3,6.7|
4,4,5.5|
4,5,3.9|
4,6,0.4|
4,7,4.5|
5,0,8.1|
5,1,8.3|
5,2,6.9|
5,3,5.8|
5,4,4.2|
5,5,3.6|
5,6,6.5|
5,7,0.69|
6,0,7.4|
6,1,1.1|
6,2,6.7|
6,3,4.9|
6,4,7.4|
6,5,1.4|
6,6,3.5|
6,7,2.7|
7,0,7.5|
7,1,8.8|
7,2,4.6|
7,3,6.3|
7,4,8.2|
7,5,8.4|
7,6,1.2|
7,7,0.3|
];
constraint_x11_x7=[
0,0,8.8|
0,1,5.7|
0,2,1.9|
0,3,2.5|
0,4,2.3|
0,5,7.6|
0,6,4.3|
0,7,3.1|
1,0,1.8|
1,1,7.7|
1,2,1.3|
1,3,9.8|
1,4,7.9|
1,5,8.2|
1,6,4.7|
1,7,0.33|
2,0,7.7|
2,1,9.6|
2,2,3.9|
2,3,2|
2,4,0.54|
2,5,1.1|
2,6,9.7|
2,7,3.7|
3,0,1.8|
3,1,3.4|
3,2,9.6|
3,3,5.1|
3,4,3|
3,5,0.59|
3,6,6.4|
3,7,6.4|
4,0,1.8|
4,1,8.1|
4,2,1.3|
4,3,4|
4,4,7.4|
4,5,8.5|
4,6,0.71|
4,7,9.4|
5,0,7.6|
5,1,1.8|
5,2,3|
5,3,2.3|
5,4,5.1|
5,5,9.7|
5,6,4.3|
5,7,0.59|
6,0,7.9|
6,1,7.8|
6,2,2.4|
6,3,4.7|
6,4,9|
6,5,10|
6,6,6|
6,7,5.6|
7,0,7.9|
7,1,5.7|
7,2,4.8|
7,3,5.1|
7,4,3.4|
7,5,6|
7,6,3.4|
7,7,9.9|
];
constraint_x12_x8=[
0,0,6.5|
0,1,0.6|
0,2,4.8|
0,3,6.9|
0,4,6.6|
0,5,0.42|
0,6,2.4|
0,7,4.4|
1,0,6.4|
1,1,7|
1,2,7.6|
1,3,2.1|
1,4,0.4|
1,5,3.3|
1,6,2|
1,7,1.9|
2,0,3.9|
2,1,8.6|
2,2,6|
2,3,5.2|
2,4,9.2|
2,5,3.6|
2,6,2.5|
2,7,0.71|
3,0,0.18|
3,1,4.4|
3,2,8.3|
3,3,5.7|
3,4,6.1|
3,5,2.6|
3,6,7.2|
3,7,6.3|
4,0,3.8|
4,1,9.9|
4,2,2.3|
4,3,8.2|
4,4,8.4|
4,5,2.6|
4,6,1.5|
4,7,2|
5,0,8.2|
5,1,2.6|
5,2,0.36|
5,3,1.4|
5,4,3.9|
5,5,8.1|
5,6,5.8|
5,7,9.8|
6,0,1.9|
6,1,3.5|
6,2,8.9|
6,3,1.6|
6,4,8.8|
6,5,7.8|
6,6,7.7|
6,7,0.72|
7,0,4.5|
7,1,7.2|
7,2,3.8|
7,3,5.3|
7,4,6|
7,5,5.2|
7,6,9.1|
7,7,7.5|
];
constraint_x13_x9=[
0,0,1.7|
0,1,3.5|
0,2,9.8|
0,3,0.53|
0,4,5.8|
0,5,4|
0,6,10|
0,7,6.4|
1,0,7.5|
1,1,2.9|
1,2,8|
1,3,2.2|
1,4,1.7|
1,5,4.1|
1,6,1.6|
1,7,7.7|
2,0,0.25|
2,1,7.1|
2,2,4.4|
2,3,3.4|
2,4,3.1|
2,5,1.9|
2,6,3.6|
2,7,4|
3,0,0.026|
3,1,1.7|
3,2,0.5|
3,3,5.6|
3,4,6.1|
3,5,3.2|
3,6,2.7|
3,7,3.4|
4,0,9.5|
4,1,0.2|
4,2,1.1|
4,3,5.5|
4,4,9.2|
4,5,6.4|
4,6,0.24|
4,7,7.6|
5,0,3.5|
5,1,1.4|
5,2,0.98|
5,3,2.1|
5,4,7.7|
5,5,0.54|
5,6,2.4|
5,7,3.3|
6,0,2|
6,1,5.4|
6,2,6.2|
6,3,3.5|
6,4,8.5|
6,5,9.8|
6,6,8.3|
6,7,5.3|
7,0,2.5|
7,1,2.8|
7,2,6.2|
7,3,5.1|
7,4,0.62|
7,5,1.7|
7,6,9.4|
7,7,9.4|
];
constraint_x14_x10=[
0,0,1.6|
0,1,6.9|
0,2,4.6|
0,3,6.3|
0,4,1|
0,5,8.7|
0,6,6.2|
0,7,0.42|
1,0,9.3|
1,1,3.8|
1,2,9.9|
1,3,4.3|
1,4,9|
1,5,1.4|
1,6,7.5|
1,7,3.6|
2,0,0.39|
2,1,6.4|
2,2,3|
2,3,5.4|
2,4,8.5|
2,5,0.43|
2,6,3.3|
2,7,8.4|
3,0,0.75|
3,1,9.8|
3,2,3.6|
3,3,6.8|
3,4,6.1|
3,5,3.1|
3,6,1.8|
3,7,8.6|
4,0,3.6|
4,1,0.57|
4,2,5.3|
4,3,5.2|
4,4,4.1|
4,5,1.5|
4,6,2.4|
4,7,1.9|
5,0,1.5|
5,1,7.4|
5,2,1.3|
5,3,3.9|
5,4,1.4|
5,5,4.5|
5,6,7.2|
5,7,6.9|
6,0,8|
6,1,0.17|
6,2,6.5|
6,3,4.2|
6,4,8|
6,5,3.9|
6,6,6.7|
6,7,2|
7,0,5.1|
7,1,5.3|
7,2,4.9|
7,3,0.62|
7,4,5.8|
7,5,4.4|
7,6,2.4|
7,7,0.85|
];
constraint_x15_x11=[
0,0,4.8|
0,1,8.3|
0,2,8.2|
0,3,7.3|
0,4,8.5|
0,5,8.3|
0,6,7.3|
0,7,8.9|
1,0,1.7|
1,1,9.5|
1,2,9.3|
1,3,6|
1,4,3.5|
1,5,7.9|
1,6,4.2|
1,7,4.5|
2,0,9.6|
2,1,0.11|
2,2,4.4|
2,3,6.5|
2,4,1.7|
2,5,3.3|
2,6,3.5|
2,7,6.2|
3,0,1.1|
3,1,3.9|
3,2,2.3|
3,3,4.6|
3,4,4.7|
3,5,9.6|
3,6,2.9|
3,7,8.5|
4,0,8.9|
4,1,1|
4,2,2.4|
4,3,8.2|
4,4,1.2|
4,5,9|
4,6,6.5|
4,7,4.7|
5,0,1.9|
5,1,4.8|
5,2,7.7|
5,3,5.3|
5,4,1.2|
5,5,2.4|
5,6,4.7|
5,7,0.075|
6,0,9.3|
6,1,7.9|
6,2,8.1|
6,3,8|
6,4,9.8|
6,5,6.1|
6,6,2.7|
6,7,9.7|
7,0,3.8|
7,1,7.1|
7,2,6.3|
7,3,7.6|
7,4,5.6|
7,5,7.9|
7,6,5.5|
7,7,7|
];
constraint_x16_x12=[
0,0,8|
0,1,0.51|
0,2,0.86|
0,3,7.2|
0,4,7.2|
0,5,0.78|
0,6,2.5|
0,7,8.2|
1,0,3.2|
1,1,4.2|
1,2,5.4|
1,3,6.2|
1,4,7.6|
1,5,9.4|
1,6,3.2|
1,7,8.6|
2,0,0.95|
2,1,8|
2,2,4.3|
2,3,7.7|
2,4,8|
2,5,5.9|
2,6,9.3|
2,7,6.2|
3,0,6.1|
3,1,3.3|
3,2,7.9|
3,3,8.7|
3,4,2.9|
3,5,4.2|
3,6,5.3|
3,7,2.7|
4,0,8.9|
4,1,7.5|
4,2,0.23|
4,3,9.6|
4,4,8.8|
4,5,6.9|
4,6,1.7|
4,7,2.7|
5,0,6.1|
5,1,6.3|
5,2,4.1|
5,3,1.4|
5,4,4.6|
5,5,8.3|
5,6,1.7|
5,7,7.9|
6,0,6.2|
6,1,1.9|
6,2,0.58|
6,3,9.1|
6,4,6.5|
6,5,2.3|
6,6,2.8|
6,7,1.5|
7,0,4.1|
7,1,1|
7,2,8.6|
7,3,1.9|
7,4,7.3|
7,5,9.5|
7,6,7|
7,7,4.8|
];
constraint_x17_x13=[
0,0,5|
0,1,1.9|
0,2,1.6|
0,3,6.3|
0,4,6|
0,5,7.2|
0,6,9.1|
0,7,2.8|
1,0,4.1|
1,1,2.4|
1,2,5.7|
1,3,9.3|
1,4,3.6|
1,5,0.61|
1,6,5.1|
1,7,6|
2,0,8.6|
2,1,1.5|
2,2,3.9|
2,3,8|
2,4,4.2|
2,5,1|
2,6,8.4|
2,7,7|
3,0,7.8|
3,1,0.51|
3,2,3.4|
3,3,9.7|
3,4,9.7|
3,5,7.9|
3,6,1.9|
3,7,4.7|
4,0,5.4|
4,1,0.38|
4,2,1.9|
4,3,9.7|
4,4,7.9|
4,5,1.2|
4,6,5|
4,7,3.9|
5,0,4.2|
5,1,5.3|
5,2,6.2|
5,3,3.1|
5,4,7.4|
5,5,4.8|
5,6,9.3|
5,7,4.2|
6,0,1.6|
6,1,4.2|
6,2,9.5|
6,3,5.2|
6,4,2.9|
6,5,6.8|
6,6,9.9|
6,7,1.7|
7,0,6.8|
7,1,9.3|
7,2,6.2|
7,3,1.1|
7,4,0.98|
7,5,5.8|
7,6,5.3|
7,7,5.9|
];
constraint_x18_x14=[
0,0,7|
0,1,1.6|
0,2,2.4|
0,3,3.7|
0,4,0.76|
0,5,9.6|
0,6,8.1|
0,7,7.5|
1,0,3.9|
1,1,4.3|
1,2,9.3|
1,3,2.3|
1,4,9.4|
1,5,7.8|
1,6,4.7|
1,7,7.4|
2,0,1.2|
2,1,4.4|
2,2,2.2|
2,3,3.8|
2,4,6|
2,5,5.5|
2,6,8.6|
2,7,1.3|
3,0,4.1|
3,1,0.24|
3,2,3.4|
3,3,3.7|
3,4,9.2|
3,5,5.7|
3,6,9.3|
3,7,8.5|
4,0,4.5|
4,1,1.9|
4,2,8.4|
4,3,8.1|
4,4,5|
4,5,8.6|
4,6,1.6|
4,7,7.7|
5,0,8.5|
5,1,5.2|
5,2,3.7|
5,3,7|
5,4,2.1|
5,5,1.4|
5,6,3.5|
5,7,9.2|
6,0,9.9|
6,1,4.4|
6,2,7.2|
6,3,1|
6,4,3.7|
6,5,8.5|
6,6,7.5|
6,7,0.34|
7,0,6.1|
7,1,8.7|
7,2,9.6|
7,3,4.2|
7,4,6.9|
7,5,1.9|
7,6,1.4|
7,7,9.1|
];
constraint_x1_y1=[
0,0,8.9|
0,1,8.8|
0,2,9.6|
0,3,9.7|
0,4,0.65|
0,5,6.2|
0,6,6.6|
0,7,8.3|
1,0,8.9|
1,1,6.1|
1,2,1.3|
1,3,2.4|
1,4,7.5|
1,5,9.9|
1,6,0.26|
1,7,8.8|
2,0,1.9|
2,1,3.4|
2,2,8|
2,3,2.5|
2,4,4.9|
2,5,4.7|
2,6,3.1|
2,7,8.2|
3,0,6.9|
3,1,5.3|
3,2,6.5|
3,3,9.2|
3,4,1.4|
3,5,9|
3,6,1.6|
3,7,8|
4,0,2.3|
4,1,3.4|
4,2,3.5|
4,3,0.26|
4,4,7.8|
4,5,8.5|
4,6,6|
4,7,0.42|
5,0,6.6|
5,1,1.6|
5,2,0.16|
5,3,5.5|
5,4,9.5|
5,5,0.52|
5,6,6.6|
5,7,4.2|
6,0,8.7|
6,1,4.7|
6,2,6.3|
6,3,5.2|
6,4,0.6|
6,5,7.4|
6,6,7.3|
6,7,3.6|
7,0,4.9|
7,1,9.2|
7,2,1.4|
7,3,6.1|
7,4,4.6|
7,5,9.3|
7,6,1.8|
7,7,2.3|
];
constraint_x2_y2=[
0,0,2|
0,1,4|
0,2,9.3|
0,3,5.2|
0,4,3.4|
0,5,1.8|
0,6,2.2|
0,7,6.6|
1,0,9.3|
1,1,7.4|
1,2,0.31|
1,3,6.5|
1,4,6.8|
1,5,5.7|
1,6,1.8|
1,7,2.8|
2,0,4.1|
2,1,3.7|
2,2,0.18|
2,3,3.4|
2,4,8.8|
2,5,3.8|
2,6,8.9|
2,7,9.6|
3,0,2.3|
3,1,1.8|
3,2,8.9|
3,3,9.4|
3,4,8.6|
3,5,2.5|
3,6,1.3|
3,7,4.6|
4,0,2.7|
4,1,6.3|
4,2,1.3|
4,3,5.9|
4,4,8.4|
4,5,3.9|
4,6,5.7|
4,7,6.9|
5,0,9.3|
5,1,7.1|
5,2,2.7|
5,3,0.77|
5,4,3.9|
5,5,4.1|
5,6,7.1|
5,7,3.8|
6,0,0.69|
6,1,8.5|
6,2,8.6|
6,3,6.3|
6,4,7.9|
6,5,0.11|
6,6,2|
6,7,9.5|
7,0,5.9|
7,1,4.7|
7,2,7.9|
7,3,2.5|
7,4,7.3|
7,5,2.8|
7,6,0.57|
7,7,6.2|
];
constraint_x3_y3=[
0,0,6.3|
0,1,1.9|
0,2,6.3|
0,3,7.8|
0,4,1.2|
0,5,2.4|
0,6,7.2|
0,7,9.9|
1,0,2.2|
1,1,8.1|
1,2,0.68|
1,3,3.8|
1,4,2.4|
1,5,3.9|
1,6,7.4|
1,7,9.3|
2,0,3.2|
2,1,0.19|
2,2,2.7|
2,3,4.3|
2,4,5.8|
2,5,1.7|
2,6,9.6|
2,7,4.1|
3,0,1.4|
3,1,2.7|
3,2,7.8|
3,3,1.1|
3,4,4.6|
3,5,3|
3,6,5.4|
3,7,2.2|
4,0,4.6|
4,1,3.4|
4,2,0.58|
4,3,6.2|
4,4,8.6|
4,5,4.6|
4,6,1.4|
4,7,8.6|
5,0,1.9|
5,1,5.8|
5,2,0.3|
5,3,2.5|
5,4,2.1|
5,5,1.2|
5,6,3.3|
5,7,4|
6,0,7.5|
6,1,8.9|
6,2,1.5|
6,3,3.1|
6,4,0.32|
6,5,5.4|
6,6,6|
6,7,0.58|
7,0,2.7|
7,1,2.6|
7,2,0.72|
7,3,3.4|
7,4,4.9|
7,5,0.37|
7,6,0.046|
7,7,8.7|
];
constraint_x4_y4=[
0,0,6.9|
0,1,7.9|
0,2,1.7|
0,3,2.5|
0,4,1.7|
0,5,2.3|
0,6,3.5|
0,7,2|
1,0,5|
1,1,2.7|
1,2,5.3|
1,3,8|
1,4,2.1|
1,5,7.8|
1,6,0.66|
1,7,0.26|
2,0,6.5|
2,1,6.4|
2,2,7.2|
2,3,2.1|
2,4,1.5|
2,5,3.6|
2,6,3.7|
2,7,9.8|
3,0,3.6|
3,1,4.2|
3,2,9.6|
3,3,2.4|
3,4,6.9|
3,5,3.9|
3,6,2.8|
3,7,8.4|
4,0,3|
4,1,3.1|
4,2,2.3|
4,3,8.1|
4,4,4.7|
4,5,0.49|
4,6,5.9|
4,7,1.1|
5,0,9.2|
5,1,2.1|
5,2,6.2|
5,3,9.6|
5,4,7.3|
5,5,9.5|
5,6,5.6|
5,7,0.56|
6,0,4.5|
6,1,5.9|
6,2,1.6|
6,3,2.9|
6,4,2.3|
6,5,3.8|
6,6,0.17|
6,7,4.8|
7,0,7.7|
7,1,1.6|
7,2,2.3|
7,3,2.4|
7,4,1.8|
7,5,6.7|
7,6,1.5|
7,7,2.5|
];
constraint_x5_y5=[
0,0,5.7|
0,1,7.5|
0,2,0.22|
0,3,8.9|
0,4,1.8|
0,5,9.3|
0,6,2|
0,7,2.1|
1,0,0.48|
1,1,4.6|
1,2,6.3|
1,3,6.8|
1,4,6.4|
1,5,9.9|
1,6,5.9|
1,7,1.4|
2,0,8.1|
2,1,0.84|
2,2,1.8|
2,3,3.3|
2,4,2.6|
2,5,2|
2,6,8|
2,7,5.2|
3,0,1.6|
3,1,5.9|
3,2,6.5|
3,3,6|
3,4,9.2|
3,5,1.1|
3,6,8.4|
3,7,0.34|
4,0,7.5|
4,1,8.8|
4,2,7.3|
4,3,4.9|
4,4,4.4|
4,5,2.5|
4,6,9.5|
4,7,7.8|
5,0,5.9|
5,1,3.8|
5,2,4.9|
5,3,5.1|
5,4,5.4|
5,5,3.8|
5,6,8.3|
5,7,8.4|
6,0,7.9|
6,1,4.1|
6,2,0.84|
6,3,0.54|
6,4,4.1|
6,5,4.9|
6,6,2.6|
6,7,7.3|
7,0,0.96|
7,1,2.6|
7,2,6.8|
7,3,9.9|
7,4,8.6|
7,5,5.3|
7,6,7.7|
7,7,2.2|
];
constraint_x6_y6=[
0,0,4.9|
0,1,6.6|
0,2,3.6|
0,3,3.2|
0,4,0.61|
0,5,5.2|
0,6,10|
0,7,2.6|
1,0,4.1|
1,1,5.7|
1,2,6.4|
1,3,5.4|
1,4,8.9|
1,5,3.4|
1,6,7.9|
1,7,7.6|
2,0,6.2|
2,1,1.7|
2,2,0.27|
2,3,8.4|
2,4,0.7|
2,5,3|
2,6,7.9|
2,7,2.5|
3,0,2.1|
3,1,3|
3,2,0.27|
3,3,2.5|
3,4,3.6|
3,5,7.4|
3,6,0.83|
3,7,7.6|
4,0,8.9|
4,1,5|
4,2,0.45|
4,3,3.4|
4,4,6|
4,5,2.5|
4,6,7.9|
4,7,4|
5,0,2.4|
5,1,8.6|
5,2,4.8|
5,3,7|
5,4,7.8|
5,5,3.7|
5,6,0.25|
5,7,6.2|
6,0,1.2|
6,1,4.8|
6,2,1.7|
6,3,5|
6,4,6|
6,5,1.2|
6,6,3.6|
6,7,6.8|
7,0,7.8|
7,1,2.1|
7,2,5.1|
7,3,1.4|
7,4,9.5|
7,5,5.5|
7,6,2.9|
7,7,4.8|
];
constraint_x7_y7=[
0,0,0.45|
0,1,9.2|
0,2,6|
0,3,0.23|
0,4,7.8|
0,5,6.4|
0,6,8.9|
0,7,9.1|
1,0,8.3|
1,1,8.6|
1,2,1.5|
1,3,5|
1,4,1.2|
1,5,4.5|
1,6,2.2|
1,7,7.3|
2,0,4.1|
2,1,7.1|
2,2,3.1|
2,3,7.2|
2,4,5.3|
2,5,5.2|
2,6,0.27|
2,7,9.9|
3,0,3.3|
3,1,7.6|
3,2,1.2|
3,3,3.5|
3,4,5.9|
3,5,0.67|
3,6,2.9|
3,7,1.7|
4,0,4.5|
4,1,5.1|
4,2,4.8|
4,3,8.7|
4,4,7.6|
4,5,4.6|
4,6,8|
4,7,1.2|
5,0,7.2|
5,1,3|
5,2,1.6|
5,3,2.3|
5,4,3|
5,5,4.3|
5,6,5.2|
5,7,9|
6,0,7.6|
6,1,6.2|
6,2,8.9|
6,3,1.9|
6,4,0.78|
6,5,3.7|
6,6,8.7|
6,7,2.6|
7,0,1.8|
7,1,9|
7,2,9.9|
7,3,3.4|
7,4,2.2|
7,5,5.4|
7,6,8.6|
7,7,0.25|
];
constraint_x8_y8=[
0,0,3.9|
0,1,2.4|
0,2,7.1|
0,3,7.4|
0,4,9|
0,5,2.5|
0,6,0.77|
0,7,1.1|
1,0,6.4|
1,1,7.6|
1,2,0.74|
1,3,8.5|
1,4,1.9|
1,5,2.2|
1,6,0.17|
1,7,7.2|
2,0,9.3|
2,1,5.1|
2,2,2.1|
2,3,2.2|
2,4,0.96|
2,5,0.001|
2,6,0.64|
2,7,3.4|
3,0,2|
3,1,8.7|
3,2,9|
3,3,2.4|
3,4,7.2|
3,5,8.7|
3,6,5.9|
3,7,4.4|
4,0,4.8|
4,1,4|
4,2,8.2|
4,3,7.8|
4,4,2.3|
4,5,0.7|
4,6,3.6|
4,7,6.1|
5,0,4.1|
5,1,6.8|
5,2,7.1|
5,3,8.6|
5,4,4.8|
5,5,9.5|
5,6,9.3|
5,7,5.7|
6,0,9.3|
6,1,9.7|
6,2,4.7|
6,3,5.3|
6,4,5.6|
6,5,0.41|
6,6,5.4|
6,7,1.2|
7,0,4.3|
7,1,7.6|
7,2,9.9|
7,3,7.3|
7,4,0.36|
7,5,1.1|
7,6,0.4|
7,7,8.9|
];
initial_distribution_y1=[0.11,0.21,0.037,0.16,0.21,0.13,0.13,0.015];
initial_distribution_y2=[0.19,0.19,0.17,0.019,0.21,0.092,0.057,0.07];
initial_distribution_y3=[0.062,0.079,0.13,0.2,0.08,0.2,0.18,0.074];
initial_distribution_y4=[0.095,0.13,0.057,0.09,0.13,0.25,0.18,0.059];
initial_distribution_y5=[0.21,0.067,0.15,0.15,0.072,0.096,0.24,0.012];
initial_distribution_y6=[0.069,0.037,0.087,0.2,0.28,0.095,0.052,0.18];
initial_distribution_y7=[0.15,0.069,0.17,0.13,0.067,0.11,0.16,0.14];
initial_distribution_y8=[0.1,0.083,0.17,0.22,0.17,0.083,0.066,0.11];
transition_y1=[
0.16,0.19,0.11,0.049,0.12,0.077,0.2,0.094|
0.0041,0.022,0.13,0.09,0.21,0.24,0.17,0.14|
0.089,0.17,0.13,0.14,0.11,0.085,0.1,0.18|
0.052,0.095,0.32,0.12,0.13,0.12,0.11,0.052|
0.048,0.031,0.055,0.22,0.15,0.26,0.18,0.059|
0.017,0.25,0.25,0.11,0.2,0.024,0.029,0.13|
0.11,0.11,0.14,0.16,0.02,0.2,0.17,0.095|
0.091,0.15,0.08,0.17,0.061,0.22,0.078,0.15|
];
transition_y2=[
0.15,0.11,0.099,0.18,0.15,0.072,0.072,0.16|
0.2,0.036,0.029,0.16,0.22,0.054,0.25,0.052|
0.18,0.2,0.18,0.077,0.095,0.14,0.019,0.11|
0.14,0.2,0.14,0.089,0.17,0.12,0.11,0.042|
0.18,0.17,0.063,0.14,0.22,0.17,0.046,0.011|
0.17,0.11,0.017,0.16,0.076,0.19,0.12,0.16|
0.045,0.14,0.13,0.17,0.12,0.16,0.044,0.19|
0.15,0.18,0.15,0.14,0.12,0.21,0.036,0.02|
];
transition_y3=[
0.18,0.19,0.38,0.12,0.013,0.062,0.011,0.05|
0.025,0.21,0.13,0.12,0.034,0.019,0.24,0.23|
0.18,0.13,0.16,0.034,0.022,0.16,0.15,0.17|
0.19,0.19,0.12,0.0042,0.043,0.15,0.14,0.17|
0.19,0.14,0.086,0.19,0.049,0.1,0.19,0.051|
0.035,0.28,0.15,0.1,0.026,0.19,0.2,0.013|
0.1,0.23,0.13,0.19,0.073,0.091,0.1,0.082|
0.066,0.25,0.016,0.16,0.061,0.27,0.089,0.083|
];
transition_y4=[
0.025,0.19,0.18,0.0075,0.16,0.18,0.15,0.11|
0.19,0.071,0.18,0.16,0.046,0.096,0.14,0.12|
0.26,0.079,0.16,0.1,0.059,0.022,0.077,0.24|
0.15,0.18,0.12,0.18,0.13,0.095,0.018,0.13|
0.17,0.24,0.13,0.15,0.004,0.017,0.12,0.17|
0.17,0.13,0.2,0.12,0.13,0.027,0.032,0.2|
0.11,0.13,0.16,0.17,0.12,0.021,0.14,0.13|
0.2,0.059,0.2,0.12,0.21,0.13,0.022,0.059|
];
transition_y5=[
0.24,0.23,0.066,0.15,0.17,0.062,0.072,0.011|
0.19,0.12,0.16,0.15,0.045,0.2,0.014,0.13|
0.1,0.12,0.053,0.18,0.18,0.19,0.033,0.14|
0.12,0.16,0.15,0.067,0.27,0.14,0.03,0.071|
0.2,0.05,0.066,0.28,0.017,0.18,0.04,0.17|
0.096,0.1,0.033,0.24,0.031,0.3,0.12,0.085|
0.18,0.037,0.2,0.015,0.073,0.13,0.17,0.19|
0.19,0.21,0.012,0.12,0.099,0.19,0.0033,0.19|
];
transition_y6=[
0.092,0.11,0.14,0.19,0.16,0.13,0.15,0.027|
0.13,0.059,0.18,0.17,0.019,0.19,0.047,0.2|
0.21,0.2,0.13,0.15,0.19,0.042,0.032,0.049|
0.32,0.098,0.064,0.059,0.26,0.17,0.011,0.029|
0.11,0.16,0.073,0.15,0.061,0.2,0.017,0.23|
0.069,0.092,0.14,0.2,0.24,0.19,0.026,0.036|
0.1,0.27,0.15,0.054,0.016,0.24,0.053,0.11|
0.2,0.067,0.13,0.078,0.22,0.089,0.085,0.13|
];
transition_y7=[
0.22,0.22,0.17,0.048,0.16,0.039,0.055,0.078|
0.035,0.23,0.24,0.05,0.063,0.19,0.0075,0.18|
0.16,0.31,0.24,0.055,0.049,0.1,0.016,0.067|
0.13,0.24,0.0046,0.24,0.18,0.076,0.047,0.092|
0.18,0.21,0.095,0.091,0.0094,0.029,0.24,0.14|
0.051,0.2,0.069,0.24,0.062,0.016,0.14,0.22|
0.12,0.24,0.096,0.18,0.23,0.03,0.089,0.015|
0.02,0.19,0.15,0.12,0.11,0.15,0.2,0.07|
];
transition_y8=[
0.067,0.14,0.2,0.038,0.15,0.17,0.091,0.15|
0.062,0.029,0.31,0.29,0.12,0.065,0.091,0.025|
0.058,0.13,0.034,0.14,0.18,0.12,0.19,0.15|
0.12,0.1,0.16,0.098,0.11,0.11,0.16,0.15|
0.15,0.16,0.25,0.021,0.024,0.027,0.2,0.18|
0.19,0.023,0.15,0.14,0.26,0.11,0.038,0.081|
0.12,0.059,0.15,0.1,0.13,0.12,0.15,0.17|
0.05,0.21,0.019,0.05,0.13,0.24,0.11,0.19|
];
